NAME          
ROWS
 N  OBJ
 L  c1
 L  c2
 L  c3
 L  c4
COLUMNS
    MARKER    'MARKER'                 'INTORG'
    x[1]      c1        669
    x[1]      c2        40
    x[1]      c3        427
    x[1]      c4        54
    x[1]      OBJ       -881
    x[2]      c1        167
    x[2]      c2        779
    x[2]      c3        961
    x[2]      c4        390
    x[2]      OBJ       -744
    x[3]      c1        872
    x[3]      c2        911
    x[3]      c3        635
    x[3]      c4        149
    x[3]      OBJ       -62
    x[4]      c1        74
    x[4]      c2        924
    x[4]      c3        120
    x[4]      c4        674
    x[4]      OBJ       -233
    x[5]      c1        110
    x[5]      c2        488
    x[5]      c3        722
    x[5]      c4        140
    x[5]      OBJ       -124
    x[6]      c1        419
    x[6]      c2        995
    x[6]      c3        946
    x[6]      c4        55
    x[6]      OBJ       -804
    x[7]      c1        262
    x[7]      c2        235
    x[7]      c3        67
    x[7]      c4        759
    x[7]      OBJ       -974
    x[8]      c1        970
    x[8]      c2        451
    x[8]      c3        950
    x[8]      c4        397
    x[8]      OBJ       -984
    x[9]      c1        367
    x[9]      c2        65
    x[9]      c3        365
    x[9]      c4        651
    x[9]      OBJ       -356
    x[10]     c1        972
    x[10]     c2        659
    x[10]     c3        721
    x[10]     c4        388
    x[10]     OBJ       -555
    x[11]     c1        103
    x[11]     c2        514
    x[11]     c3        47
    x[11]     c4        516
    x[11]     OBJ       -939
    x[12]     c1        434
    x[12]     c2        835
    x[12]     c3        198
    x[12]     c4        388
    x[12]     OBJ       -259
    x[13]     c1        919
    x[13]     c2        694
    x[13]     c3        768
    x[13]     c4        81
    x[13]     OBJ       -257
    x[14]     c1        17
    x[14]     c2        486
    x[14]     c3        373
    x[14]     c4        800
    x[14]     OBJ       -760
    x[15]     c1        127
    x[15]     c2        630
    x[15]     c3        10
    x[15]     c4        777
    x[15]     OBJ       -952
    x[16]     c1        358
    x[16]     c2        354
    x[16]     c3        520
    x[16]     c4        419
    x[16]     OBJ       -568
    x[17]     c1        801
    x[17]     c2        198
    x[17]     c3        850
    x[17]     c4        634
    x[17]     OBJ       -101
    x[18]     c1        66
    x[18]     c2        665
    x[18]     c3        803
    x[18]     c4        22
    x[18]     OBJ       -910
    x[19]     c1        860
    x[19]     c2        560
    x[19]     c3        742
    x[19]     c4        782
    x[19]     OBJ       -361
    x[20]     c1        520
    x[20]     c2        495
    x[20]     c3        772
    x[20]     c4        956
    x[20]     OBJ       -439
    x[21]     c1        87
    x[21]     c2        156
    x[21]     c3        808
    x[21]     c4        405
    x[21]     OBJ       -40
    x[22]     c1        992
    x[22]     c2        658
    x[22]     c3        58
    x[22]     c4        161
    x[22]     OBJ       -399
    x[23]     c1        162
    x[23]     c2        846
    x[23]     c3        897
    x[23]     c4        568
    x[23]     OBJ       -143
    x[24]     c1        127
    x[24]     c2        794
    x[24]     c3        235
    x[24]     c4        511
    x[24]     OBJ       -455
    x[25]     c1        669
    x[25]     c2        641
    x[25]     c3        171
    x[25]     c4        519
    x[25]     OBJ       -345
    x[26]     c1        322
    x[26]     c2        169
    x[26]     c3        529
    x[26]     c4        756
    x[26]     OBJ       -778
    x[27]     c1        415
    x[27]     c2        827
    x[27]     c3        951
    x[27]     c4        559
    x[27]     OBJ       -328
    x[28]     c1        423
    x[28]     c2        149
    x[28]     c3        443
    x[28]     c4        914
    x[28]     OBJ       -288
    x[29]     c1        756
    x[29]     c2        365
    x[29]     c3        44
    x[29]     c4        896
    x[29]     OBJ       -105
    x[30]     c1        850
    x[30]     c2        461
    x[30]     c3        851
    x[30]     c4        387
    x[30]     OBJ       -6
    x[31]     c1        781
    x[31]     c2        512
    x[31]     c3        274
    x[31]     c4        566
    x[31]     OBJ       -469
    x[32]     c1        977
    x[32]     c2        797
    x[32]     c3        79
    x[32]     c4        834
    x[32]     OBJ       -467
    x[33]     c1        727
    x[33]     c2        264
    x[33]     c3        548
    x[33]     c4        863
    x[33]     OBJ       -407
    x[34]     c1        297
    x[34]     c2        912
    x[34]     c3        648
    x[34]     c4        893
    x[34]     OBJ       -773
    x[35]     c1        802
    x[35]     c2        131
    x[35]     c3        678
    x[35]     c4        859
    x[35]     OBJ       -532
RHS
    rhs       c1        8737
    rhs       c2        9330
    rhs       c3        9106
    rhs       c4        9362
RANGES
BOUNDS
 BV bounds    x[1]
 BV bounds    x[2]
 BV bounds    x[3]
 BV bounds    x[4]
 BV bounds    x[5]
 BV bounds    x[6]
 BV bounds    x[7]
 BV bounds    x[8]
 BV bounds    x[9]
 BV bounds    x[10]
 BV bounds    x[11]
 BV bounds    x[12]
 BV bounds    x[13]
 BV bounds    x[14]
 BV bounds    x[15]
 BV bounds    x[16]
 BV bounds    x[17]
 BV bounds    x[18]
 BV bounds    x[19]
 BV bounds    x[20]
 BV bounds    x[21]
 BV bounds    x[22]
 BV bounds    x[23]
 BV bounds    x[24]
 BV bounds    x[25]
 BV bounds    x[26]
 BV bounds    x[27]
 BV bounds    x[28]
 BV bounds    x[29]
 BV bounds    x[30]
 BV bounds    x[31]
 BV bounds    x[32]
 BV bounds    x[33]
 BV bounds    x[34]
 BV bounds    x[35]
ENDATA
